10	5
0	5	4	2	3	1	5
1	2	8	7
2	3	10	9	8
3	2	6	9
4	2	8	7
5	0
6	2	8	10
7	1	9
8	1	11
9	1	11
10	1	11
11	0
0	0	0	0	0	0	0
1	9	3	5	3	1	1
2	8	1	4	1	1	4
3	1	5	4	4	1	2
4	10	5	3	2	5	3
5	4	3	3	4	4	5
6	10	3	2	3	5	1
7	9	1	4	2	1	2
8	4	2	4	1	5	2
9	6	5	3	4	3	5
10	1	3	5	4	4	1
11	0	0	0	0	0	0
13	13	11	11	11
